c description: Random 2-CNF over 15 variables and 30 clauses
c generator: CNFgen (0.9.0)
c copyright: (C) 2012-2020 Massimo Lauria <massimo.lauria@uniroma1.it>
c url: https://massimolauria.net/cnfgen
c
p cnf 15 30
-2 -7 0
6 13 0
9 -14 0
-3 13 0
-7 13 0
-5 -6 0
-3 -14 0
-3 14 0
6 -13 0
10 14 0
-6 8 0
-6 9 0
-5 -15 0
2 -5 0
-3 -7 0
-6 7 0
-12 13 0
-11 14 0
-9 -14 0
6 15 0
-3 9 0
3 6 0
4 -9 0
13 -15 0
8 -9 0
9 10 0
9 14 0
9 13 0
-8 -12 0
8 -13 0